unknown
(model
; cardinality of BoundSet is 5
(declare-sort BoundSet 0)
; rep: @uc_BoundSet_0
; rep: @uc_BoundSet_1
; rep: @uc_BoundSet_2
; rep: @uc_BoundSet_3
; rep: @uc_BoundSet_4
; cardinality of UnboundSet is 1
(declare-sort UnboundSet 0)
(declare-fun groundTerm_6 () UnboundSet)
(define-fun Disputed ((BOUND_VARIABLE_565 BoundSet) (BOUND_VARIABLE_566 BoundSet)) Bool true)
(define-fun Ends ((BOUND_VARIABLE_569 BoundSet)) Bool true)
(define-fun Stops ((BOUND_VARIABLE_569 BoundSet)) Bool true)
(define-fun RequiresEnd ((BOUND_VARIABLE_569 BoundSet)) Bool true)
)
sat
(model
; cardinality of BoundSet is 1
(declare-sort BoundSet 0)
; rep: @uc_BoundSet_0
; cardinality of UnboundSet is 1
(declare-sort UnboundSet 0)
(declare-fun groundTerm_12 () UnboundSet)
(define-fun Disputed ((BOUND_VARIABLE_591 BoundSet) (BOUND_VARIABLE_592 BoundSet)) Bool true)
(define-fun Ends ((BOUND_VARIABLE_595 BoundSet)) Bool true)
(define-fun Stops ((BOUND_VARIABLE_595 BoundSet)) Bool true)
(define-fun RequiresEnd ((BOUND_VARIABLE_595 BoundSet)) Bool true)
)
